WARNING: for repeatability, setting FPU to use double precision
============================[ Problem Statistics ]=============================
|                                                                             |
|  Number of variables:            50                                         |
|  Number of clauses:             218                                         |
|  Parse time:                   0.00 s                                       |
|                                                                             |
============================[ Search Statistics ]==============================
| Conflicts |          ORIGINAL         |          LEARNT          | Progress |
|           |    Vars  Clauses Literals |    Limit  Clauses Lit/Cl |          |
===============================================================================
===============================================================================
restarts              : 1
conflicts             : 44             (30345 /sec)
decisions             : 67             (0.00 % random) (46207 /sec)
propagations          : 737            (508276 /sec)
conflict literals     : 200            (11.50 % deleted)
Memory used           : 20.00 MB
CPU time              : 0.00145 s

SATISFIABLE
